SDVRP instances/custom_instances/p03_26_splitx10_0.vrp
NAME:p03_26_splitx10_
BEST_KNOWN: 0
COMMENT: 0
DIMENSION: 439
CAPACITY: 2000
EDGE_WEIGHT_FORMAT: FUNCTION
EDGE_WEIGHT_TYPE: EXACT_2D
NODE_COORD_SECTION
1 0.00000 0.00000
2 -17 -43
3 -17 -43
4 -17 -43
5 -17 -43
6 -17 -43
7 -17 -43
8 -17 -43
9 -23 11
10 -23 11
11 -35 -44
12 -35 -44
13 -35 -44
14 -35 -44
15 -35 -44
16 -35 -44
17 -35 -44
18 -47 -36
19 -47 -36
20 -47 -36
21 -47 -36
22 26 -37
23 26 -37
24 37 -43
25 37 -43
26 37 -43
27 37 -43
28 37 -43
29 18 -21
30 18 -21
31 18 -21
32 21 36
33 21 36
34 21 36
35 21 36
36 21 36
37 -26 29
38 -26 29
39 -26 29
40 -26 29
41 -26 29
42 -46 -18
43 -46 -18
44 -46 -18
45 -46 -18
46 -46 -18
47 -46 -18
48 15 -43
49 15 -43
50 15 -43
51 15 -43
52 15 -43
53 22 45
54 22 45
55 -45 -43
56 -45 -43
57 -45 -43
58 -45 -43
59 -45 -43
60 -45 -43
61 -45 -43
62 1 22
63 1 22
64 1 22
65 1 22
66 1 22
67 1 22
68 1 22
69 17 -29
70 17 -29
71 17 -29
72 17 -29
73 -31 15
74 -31 15
75 -31 15
76 -39 -6
77 -39 -6
78 -39 -6
79 -39 -6
80 -39 -6
81 -39 -6
82 -43 29
83 -43 29
84 -43 29
85 -43 29
86 27 -16
87 27 -16
88 27 -16
89 27 -16
90 27 -16
91 27 -16
92 35 19
93 -13 -42
94 -13 -42
95 -13 -42
96 -13 -42
97 -13 -42
98 -13 -42
99 -13 -42
100 -1 -26
101 -1 -26
102 -1 -26
103 -1 -26
104 -33 -23
105 -33 -23
106 -33 -23
107 -33 -23
108 -33 -23
109 -33 -23
110 39 -18
111 39 -18
112 39 -18
113 -48 42
114 -48 42
115 -48 42
116 -48 42
117 -48 42
118 28 -18
119 28 -18
120 28 -18
121 28 -18
122 28 -18
123 28 -18
124 28 -18
125 -17 -47
126 -17 -47
127 -17 -47
128 -16 -10
129 -16 -10
130 -16 -10
131 -16 -10
132 -16 -10
133 -20 -47
134 -20 -47
135 -20 -47
136 -20 -47
137 -20 -47
138 -20 -47
139 -20 -47
140 -3 -15
141 -3 -15
142 -3 -15
143 -3 -15
144 -3 -15
145 -49 26
146 -49 26
147 -49 26
148 -34 -38
149 -34 -38
150 -34 -38
151 -33 -43
152 -33 -43
153 -33 -43
154 -33 -43
155 -33 -43
156 -33 -43
157 25 34
158 25 34
159 25 34
160 25 34
161 -28 4
162 -28 4
163 -28 4
164 -28 4
165 -7 -34
166 -7 -34
167 -7 -34
168 -7 -34
169 -41 -47
170 -41 -47
171 -41 -47
172 -41 -47
173 13 -50
174 13 -50
175 13 -50
176 13 -50
177 13 -50
178 13 -50
179 33 30
180 33 30
181 33 30
182 22 -40
183 22 -40
184 22 -40
185 -32 -7
186 -32 -7
187 -32 -7
188 -32 -7
189 -32 -7
190 -16 -23
191 -16 -23
192 -16 -23
193 -16 -23
194 -16 -23
195 -50 -47
196 -50 -47
197 -50 -47
198 -50 -47
199 -50 -47
200 -50 -47
201 -50 -47
202 7 5
203 -48 -50
204 -48 -50
205 -48 -50
206 -48 -50
207 -3 -46
208 -3 -46
209 -3 -46
210 -41 -13
211 -41 -13
212 -41 -13
213 -41 -13
214 34 -22
215 34 -22
216 34 -22
217 34 -22
218 34 -22
219 19 -19
220 19 -19
221 19 -19
222 19 -19
223 19 -19
224 19 -19
225 -21 18
226 -21 18
227 -21 18
228 -21 18
229 -21 18
230 27 2
231 27 2
232 27 2
233 27 2
234 27 2
235 27 2
236 27 2
237 -41 -21
238 -41 -21
239 -41 -21
240 -41 -21
241 -20 -22
242 -20 -22
243 -20 -22
244 -20 -22
245 45 -22
246 45 -22
247 45 -22
248 -23 -36
249 -23 -36
250 -23 -36
251 -23 -36
252 -23 -36
253 -23 -36
254 38 37
255 38 37
256 38 37
257 -22 -1
258 -22 -1
259 -22 -1
260 -22 -1
261 -22 -1
262 -22 -1
263 -5 39
264 -5 39
265 -5 39
266 -5 39
267 -5 39
268 -5 39
269 -5 39
270 5 -29
271 5 -29
272 5 -29
273 5 -29
274 -31 -9
275 -31 -9
276 -31 -9
277 -31 -9
278 -31 -9
279 32 -47
280 32 -47
281 32 -47
282 32 -47
283 32 -47
284 32 -47
285 -10 -5
286 -10 -5
287 -10 -5
288 -10 -5
289 -10 -5
290 -5 16
291 -5 16
292 -5 16
293 -5 16
294 -7 -38
295 -7 -38
296 -47 14
297 -47 14
298 -47 14
299 22 46
300 22 46
301 22 46
302 22 46
303 -26 43
304 -26 43
305 -26 43
306 -26 43
307 -42 7
308 -42 7
309 -20 -50
310 -20 -50
311 -20 -50
312 -20 -50
313 -20 -50
314 -20 -50
315 29 -32
316 29 -32
317 29 -32
318 -34 -44
319 -34 -44
320 -34 -44
321 -34 -44
322 -38 5
323 -38 5
324 -38 5
325 -38 5
326 17 -20
327 17 -20
328 17 -20
329 17 -20
330 17 -20
331 17 -20
332 -4 22
333 -4 22
334 -4 22
335 -4 22
336 -4 22
337 -4 22
338 49 -25
339 49 -25
340 49 -25
341 49 -25
342 20 14
343 20 14
344 20 14
345 20 14
346 20 14
347 -29 -30
348 -29 -30
349 -29 -30
350 -29 -30
351 -1 -37
352 -1 -37
353 -1 -37
354 -1 -37
355 10 -34
356 10 -34
357 10 -34
358 -27 -10
359 -27 -10
360 -27 -10
361 -27 -10
362 -1 -50
363 -1 -50
364 -1 -50
365 -1 -50
366 -1 -50
367 -1 -50
368 -1 -50
369 8 4
370 8 4
371 27 46
372 27 46
373 27 46
374 27 46
375 -8 -21
376 -8 -21
377 -8 -21
378 -8 -21
379 32 -2
380 32 -2
381 32 -2
382 32 -2
383 5 21
384 5 21
385 5 21
386 -3 -31
387 -3 -31
388 -3 -31
389 -34 0
390 -34 0
391 -6 8
392 -6 8
393 -6 8
394 -44 -35
395 -44 -35
396 -44 -35
397 -44 -35
398 -44 -35
399 -12 4
400 -12 4
401 -12 4
402 -12 4
403 -38 -8
404 -38 -8
405 -38 -8
406 15 0
407 15 0
408 15 0
409 15 0
410 -27 -1
411 -27 -1
412 -27 -1
413 -27 -1
414 -27 -1
415 16 -43
416 16 -43
417 16 -43
418 -49 -46
419 -49 -46
420 -49 -46
421 -49 -46
422 28 25
423 28 25
424 28 25
425 28 25
426 28 25
427 27 44
428 27 44
429 27 44
430 27 44
431 27 44
432 -27 -47
433 -27 -47
434 -27 -47
435 24 34
436 24 34
437 24 34
438 24 34
439 24 34
DEMAND_SECTION
1 0
2 400
3 200
4 100
5 20
6 20
7 20
8 10
9 400
10 100
11 400
12 400
13 20
14 20
15 20
16 20
17 10
18 400
19 400
20 100
21 10
22 400
23 10
24 200
25 100
26 20
27 20
28 10
29 400
30 20
31 10
32 200
33 100
34 20
35 20
36 10
37 200
38 100
39 20
40 20
41 20
42 400
43 200
44 20
45 20
46 20
47 10
48 200
49 20
50 20
51 20
52 10
53 400
54 10
55 400
56 200
57 20
58 20
59 20
60 20
61 10
62 400
63 200
64 100
65 20
66 20
67 20
68 20
69 400
70 200
71 100
72 20
73 400
74 100
75 20
76 400
77 100
78 20
79 20
80 20
81 10
82 200
83 100
84 20
85 20
86 200
87 100
88 20
89 20
90 20
91 20
92 400
93 400
94 100
95 20
96 20
97 20
98 20
99 10
100 400
101 200
102 20
103 20
104 200
105 100
106 20
107 20
108 20
109 10
110 400
111 400
112 20
113 200
114 100
115 20
116 20
117 10
118 400
119 400
120 100
121 20
122 20
123 20
124 20
125 200
126 100
127 20
128 200
129 100
130 20
131 20
132 10
133 400
134 100
135 20
136 20
137 20
138 20
139 10
140 400
141 400
142 20
143 20
144 20
145 400
146 200
147 100
148 400
149 200
150 100
151 400
152 400
153 20
154 20
155 20
156 20
157 400
158 400
159 100
160 20
161 400
162 20
163 20
164 20
165 400
166 400
167 100
168 10
169 400
170 100
171 20
172 10
173 200
174 20
175 20
176 20
177 20
178 10
179 400
180 400
181 100
182 400
183 400
184 10
185 400
186 200
187 20
188 20
189 10
190 400
191 400
192 100
193 20
194 20
195 400
196 100
197 20
198 20
199 20
200 20
201 10
202 400
203 400
204 400
205 20
206 20
207 400
208 200
209 20
210 400
211 100
212 20
213 20
214 400
215 400
216 20
217 20
218 20
219 200
220 20
221 20
222 20
223 20
224 10
225 200
226 20
227 20
228 20
229 10
230 200
231 100
232 20
233 20
234 20
235 20
236 10
237 200
238 20
239 20
240 20
241 400
242 200
243 20
244 10
245 200
246 100
247 10
248 400
249 400
250 100
251 20
252 20
253 10
254 400
255 200
256 10
257 400
258 20
259 20
260 20
261 20
262 10
263 400
264 400
265 20
266 20
267 20
268 20
269 10
270 400
271 20
272 20
273 10
274 400
275 20
276 20
277 20
278 10
279 400
280 400
281 20
282 20
283 20
284 20
285 200
286 20
287 20
288 20
289 20
290 400
291 200
292 100
293 20
294 400
295 20
296 400
297 400
298 200
299 400
300 400
301 20
302 10
303 400
304 200
305 20
306 10
307 400
308 20
309 400
310 400
311 100
312 20
313 20
314 10
315 200
316 100
317 20
318 200
319 100
320 20
321 20
322 400
323 400
324 20
325 10
326 200
327 100
328 20
329 20
330 20
331 10
332 200
333 100
334 20
335 20
336 20
337 20
338 400
339 200
340 100
341 20
342 400
343 200
344 20
345 20
346 20
347 400
348 100
349 20
350 10
351 400
352 200
353 20
354 10
355 400
356 20
357 20
358 400
359 200
360 20
361 20
362 400
363 400
364 100
365 20
366 20
367 20
368 20
369 400
370 400
371 400
372 200
373 20
374 10
375 400
376 100
377 20
378 10
379 400
380 400
381 20
382 10
383 200
384 100
385 10
386 400
387 200
388 20
389 400
390 20
391 400
392 100
393 10
394 400
395 200
396 100
397 20
398 10
399 400
400 200
401 20
402 20
403 400
404 100
405 20
406 400
407 400
408 100
409 10
410 400
411 20
412 20
413 20
414 10
415 400
416 200
417 20
418 200
419 100
420 20
421 20
422 400
423 100
424 20
425 20
426 10
427 200
428 100
429 20
430 20
431 20
432 400
433 200
434 20
435 200
436 20
437 20
438 20
439 10
DEPOT_SECTION
1
-1
EOF