SDVRP instances/custom_instances/p03_26_splitx10_0.sol
438 -7 1 5 2 4 6 3 134 136 133 137 138 132 135 92 97 93 94 96 95 98 294 -11 12 10 320 318 319 317 150 151 152 154 -13 16 168 171 55 54 56 59 60 58 57 149 148 147 347 243 242 -21 22 283 280 279 282 281 278 25 24 26 23 27 316 315 314 -35 32 31 33 34 53 52 300 298 301 299 384 382 383 -39 40 302 304 303 305 264 265 263 262 267 268 266 332 331 334 335 336 333 -67 62 66 63 64 65 61 291 292 289 290 390 391 -71 69 70 68 28 30 29 330 329 327 328 326 325 218 223 222 220 221 219 -72 74 73 297 296 295 306 307 -78 76 75 79 80 77 404 402 403 187 188 184 186 185 359 358 -85 381 380 379 378 230 232 229 231 235 234 233 408 407 405 -87 89 88 86 90 217 215 216 213 214 119 118 117 121 -100 101 99 102 385 166 165 167 164 -103 104 105 106 19 20 18 17 395 394 393 396 397 -108 107 236 237 239 238 42 44 43 46 41 45 209 210 212 211 274 277 275 276 273 -111 110 109 245 244 246 337 338 340 339 122 120 123 -125 126 124 308 310 311 313 312 309 431 433 432 -143 142 140 139 141 375 377 376 374 -153 155 14 15 169 170 205 202 203 204 197 200 194 199 196 198 195 419 417 420 418 -159 158 157 156 178 180 179 425 -162 324 322 323 321 388 389 413 409 412 411 410 257 260 259 258 -175 177 173 174 172 176 51 50 48 49 47 416 415 414 183 182 181 -192 193 189 190 191 241 240 128 127 129 131 130 285 286 288 287 -201 369 368 -225 224 226 228 227 81 82 83 84 145 146 144 114 116 115 113 112 38 36 37 392 -252 249 250 251 248 247 348 349 346 360 357 284 -253 254 255 372 371 373 370 427 426 428 430 429 437 435 436 438 434 -261 256 160 163 161 8 9 401 399 398 400 -270 269 271 272 355 354 356 351 352 350 353 387 386 -293 206 208 207 365 366 367 361 362 364 363 -342 341 343 345 344 422 423 421 424 91 406 0 





OBJ=
2935.019
BEST_KNOWN=
0.000